NAME : gaussian_missing_edges_with_de_seg1_seg2_seg3_random152.9062.tour
COMMENT : Length = 9062
COMMENT : Found by LKH [Keld Helsgaun] Fri Jul 12 16:46:50 2024
TYPE : TOUR
DIMENSION : 152
TOUR_SECTION
1
55
75
34
72
59
79
76
122
71
5
8
14
147
57
3
127
126
98
96
137
13
132
38
114
116
54
101
26
148
9
112
47
73
92
85
4
142
64
23
81
125
6
83
106
105
138
108
65
136
87
17
12
40
130
66
124
104
78
80
115
29
51
113
50
150
103
24
60
15
88
33
139
102
25
62
74
135
37
93
144
28
146
111
82
67
143
39
20
129
123
41
86
120
42
63
11
58
149
68
49
35
19
100
18
10
121
95
94
27
36
22
84
151
30
45
117
21
133
16
140
134
141
90
109
99
31
131
118
2
152
91
46
110
69
77
44
43
89
119
48
97
52
56
61
32
7
128
53
145
70
107
-1
EOF
